DATASET = "thpack7";
INSTANCE = "097";

WIDTH = 233;
HEIGHT = 220;
LENGTH = 587;

NO_OF_SHAPES = 20;
size = [|
  74,60,32 |
  100,50,43 |
  95,74,42 |
  95,70,30 |
  45,37,24 |
  67,60,25 |
  55,51,35 |
  76,71,61 |
  119,88,51 |
  98,81,26 |
  86,69,61 |
  117,54,30 |
  96,40,24 |
  54,52,41 |
  89,61,41 |
  82,81,71 |
  97,53,49 |
  74,72,35 |
  83,77,47 |
  80,48,45 |
|];

verticality = [|
  0,1,1 |
  0,1,1 |
  0,1,1 |
  0,0,1 |
  1,1,1 |
  0,0,1 |
  1,1,1 |
  1,1,1 |
  0,1,1 |
  0,0,1 |
  1,1,1 |
  0,1,1 |
  0,1,1 |
  1,1,1 |
  0,1,1 |
  1,1,1 |
  1,1,1 |
  0,0,1 |
  1,1,1 |
  1,1,1 |
|];

box_count = [
  7,
  7,
  6,
  8,
  4,
  9,
  4,
  6,
  8,
  6,
  7,
  3,
  4,
  7,
  8,
  8,
  5,
  5,
  7,
  5,
];
